0 5105.44
1 5034.18
2 5034.18
3 5026.98
4 5022.17
5 5022.17
6 5022.17
7 4946.36
8 4946.36
9 4946.36
10 4946.36
11 4946.36
12 4946.36
13 4921.25
14 4921.25
15 4921.25
16 4921.25
17 4915.79
18 4915.79
19 4915.79
20 4915.79
21 4915.79
22 4915.79
23 4915.79
24 4888.76
25 4888.76
26 4888.76
27 4888.76
28 4888.76
29 4888.76
30 4888.76
31 4888.76
32 4888.76
33 4888.76
34 4888.76
35 4881.08
36 4881.08
37 4881.08
38 4881.08
39 4881.08
40 4881.08
41 4881.08
42 4859.42
43 4859.42
44 4859.42
45 4859.42
46 4859.42
47 4859.42
48 4859.42
49 4859.42
50 4859.42
51 4859.42
52 4859.42
53 4859.42
54 4859.42
55 4859.42
56 4859.42
57 4859.42
58 4859.42
59 4859.42
60 4859.42
61 4859.42
62 4859.42
63 4859.42
64 4859.42
65 4859.42
66 4859.42
67 4859.42
68 4859.42
69 4859.42
70 4859.42
71 4859.42
72 4859.42
73 4859.42
74 4859.42
75 4859.42
76 4859.42
77 4859.42
78 4859.42
79 4859.42
80 4859.42
81 4859.42
82 4859.42
83 4859.42
84 4818.70
85 4818.70
86 4818.70
87 4818.70
88 4818.70
89 4818.70
90 4818.70
91 4818.70
92 4818.70
93 4818.70
94 4818.70
95 4818.70
96 4818.70
97 4818.70
98 4818.70
99 4818.70
100 4818.70
101 4818.70
102 4818.70
103 4818.70
104 4818.70
105 4818.70
106 4818.70
107 4818.70
108 4818.70
109 4818.70
110 4818.70
111 4818.70
112 4818.70
113 4818.70
114 4818.70
115 4818.70
116 4818.70
117 4818.70
118 4818.70
119 4818.70
120 4818.70
121 4818.70
122 4818.70
123 4818.70
124 4818.70
125 4818.70
126 4791.13
127 4791.13
128 4791.13
129 4791.13
130 4791.13
131 4791.13
132 4791.13
133 4791.13
134 4791.13
135 4791.13
136 4791.13
137 4784.69
138 4784.69
139 4784.69
140 4784.69
141 4784.69
142 4784.69
143 4784.69
144 4784.69
145 4784.69
146 4784.69
147 4784.69
148 4784.69
149 4784.69
150 4784.69
151 4784.69
152 4784.69
153 4784.69
154 4784.69
155 4784.69
156 4784.69
157 4784.69
158 4784.69
159 4784.69
160 4784.69
161 4784.69
162 4784.69
163 4784.69
164 4784.69
165 4784.69
166 4783.23
167 4783.23
168 4783.23
169 4783.23
170 4783.23
171 4783.23
172 4783.23
173 4783.23
174 4783.23
175 4783.23
176 4783.23
177 4783.23
178 4783.23
179 4783.23
180 4783.23
181 4783.23
182 4783.23
183 4783.23
184 4783.23
185 4783.23
186 4783.23
187 4783.23
188 4783.23
189 4783.23
190 4783.23
191 4783.23
192 4783.23
193 4783.23
194 4783.23
195 4783.23
196 4783.23
197 4783.23
198 4783.23
199 4783.23
200 4783.23
201 4783.23
202 4783.23
203 4783.23
204 4783.23
205 4783.23
206 4783.23
207 4783.23
208 4783.23
209 4783.23
210 4783.23
211 4783.23
212 4783.23
213 4783.23
214 4783.23
215 4783.23
216 4783.23
217 4783.23
218 4783.23
219 4783.23
220 4783.23
221 4783.23
222 4783.23
223 4783.23
224 4783.23
225 4783.23
226 4783.23
227 4783.23
228 4783.23
229 4783.23
230 4783.23
231 4783.23
232 4783.23
233 4783.23
234 4783.23
235 4783.23
236 4783.23
237 4783.23
238 4783.23
239 4783.23
240 4783.23
241 4783.23
242 4783.23
243 4783.23
244 4783.23
245 4783.23
246 4783.23
247 4783.23
248 4783.23
249 4783.23
250 4783.23
251 4783.23
252 4783.23
253 4783.23
254 4783.23
255 4783.23
256 4783.23
257 4783.23
258 4783.23
259 4783.23
260 4783.23
261 4783.23
262 4783.23
263 4783.23
264 4783.23
265 4783.23
266 4783.23
267 4783.23
268 4783.23
269 4783.23
270 4783.23
271 4783.23
272 4783.23
273 4783.23
274 4783.23
275 4783.23
276 4783.23
277 4783.23
278 4783.23
279 4783.23
280 4783.23
281 4780.91
282 4780.91
283 4780.91
284 4780.91
285 4780.91
286 4780.91
287 4780.91
288 4780.91
289 4780.91
290 4780.91
291 4780.91
292 4780.91
293 4780.91
294 4780.91
295 4780.91
296 4780.91
297 4780.91
298 4780.91
299 4780.91
300 4780.91
301 4780.91
302 4780.91
303 4780.91
304 4780.91
305 4780.91
306 4780.91
307 4780.91
308 4780.91
309 4780.91
310 4780.91
311 4780.91
312 4780.91
313 4780.91
314 4780.91
315 4780.91
316 4780.91
317 4780.91
318 4780.91
319 4780.91
320 4780.91
321 4780.91
322 4780.91
323 4780.91
324 4780.91
325 4780.91
326 4780.91
327 4780.91
328 4780.91
329 4780.91
330 4780.91
331 4780.91
332 4780.91
333 4780.91
334 4780.91
335 4780.91
336 4780.91
337 4780.91
338 4780.91
339 4780.91
340 4780.91
341 4780.91
342 4780.91
343 4780.91
344 4780.91
345 4780.91
346 4780.91
347 4780.91
348 4780.91
349 4780.91
350 4780.91
351 4780.91
352 4780.91
353 4780.91
354 4780.91
355 4770.18
356 4770.18
357 4770.18
358 4770.18
359 4770.18
360 4770.18
361 4770.18
362 4770.18
363 4770.18
364 4770.18
365 4770.18
366 4770.18
367 4770.18
368 4770.18
369 4770.18
370 4770.18
371 4770.18
372 4770.18
373 4770.18
374 4770.18
375 4770.18
376 4770.18
377 4770.18
378 4770.18
379 4770.18
380 4770.18
381 4770.18
382 4770.18
383 4770.18
384 4770.18
385 4770.18
386 4770.18
387 4770.18
388 4770.18
389 4770.18
390 4770.18
391 4770.18
392 4770.18
393 4770.18
394 4770.18
395 4770.18
396 4770.18
397 4770.18
398 4770.18
399 4770.18
400 4770.18
401 4770.18
402 4770.18
403 4770.18
404 4770.18
405 4770.18
406 4770.18
407 4770.18
408 4770.18
409 4770.18
410 4770.18
411 4770.18
412 4770.18
413 4770.18
414 4770.18
415 4770.18
416 4770.18
417 4770.18
418 4770.18
419 4770.18
420 4770.18
421 4770.18
422 4770.18
423 4770.18
424 4770.18
425 4770.18
426 4770.18
427 4770.18
428 4770.18
429 4770.18
430 4770.18
431 4770.18
432 4770.18
433 4770.18
434 4770.18
435 4770.18
436 4770.18
437 4770.18
438 4770.18
439 4770.18
440 4770.18
441 4770.18
442 4770.18
443 4770.18
444 4770.18
445 4770.18
446 4770.18
447 4770.18
448 4770.18
449 4770.18
450 4770.18
451 4770.18
452 4770.18
453 4770.18
454 4770.18
455 4770.18
456 4770.18
457 4770.18
458 4770.18
459 4770.18
460 4770.18
461 4770.18
462 4770.18
463 4770.18
464 4770.18
465 4770.18
466 4770.18
467 4770.18
468 4770.18
469 4770.18
470 4770.18
471 4770.18
472 4770.18
473 4770.18
474 4770.18
475 4770.18
476 4770.18
477 4770.18
478 4770.18
479 4770.18
480 4770.18
481 4770.18
482 4770.18
483 4770.18
484 4770.18
485 4770.18
486 4770.18
487 4770.18
488 4770.18
489 4770.18
490 4770.18
491 4770.18
492 4770.18
493 4770.18
494 4770.18
495 4770.18
496 4770.18
497 4770.18
498 4770.18
499 4770.18
4 5 8 4 0 0 